128 82 155 54 44 190 139 169 21 115 132 5 191 57 77 152 43 121 154 95 99 148 194 103 0 32 85 98 150 193 157 170 83 122 25 34 45 18 151 80 79 173 81 108 50 138 68 78 9 141 163 84 40 74 142 147 92 13 186 75 96 97 140 60 114 15 156 153 31 4 100 187 41 53 179 160 11 111 110 117 192 86 104 161 55 106 167 47 189 185 46 38 137 64 59 168 33 93 172 67 36 130 3 19 35 197 69 24 146 16 158 134 124 17 195 143 133 73 159 171 109 10 182 91 52 37 165 27 66 162 183 62 8 1 63 129 120 188 14 65 102 2 175 136 145 123 126 6 76 39 125 89 119 174 29 71 49 26 22 58 88 105 176 113 118 184 149 135 112 164 23 180 30 177 181 101 144 12 7 48 166 178 72 87 116 20 28 199 51 56 131 127 90 196 42 70 107 94 61 198 

